\ENCODING=ISO-8859-1
\Problem name: Fuel_Opt_Model

Minimize
 obj: 151.52 X_01,01_01 + 155.92 X_01,01_02 + 160.32 X_01,01_03
      + 164.72 X_01,01_04 + 169.12 X_01,01_05 + 173.52 X_01,01_06
      + 147.12 X_01,01_07 + 268.02 X_01,02_01 + 272.42 X_01,02_02
      + 276.82 X_01,02_03 + 281.22 X_01,02_04 + 285.62 X_01,02_05
      + 290.02 X_01,02_06 + 263.62 X_01,02_07 + 270.54 X_02,01_01
      + 274.94 X_02,01_02 + 279.34 X_02,01_03 + 283.74 X_02,01_04
      + 288.14 X_02,01_05 + 292.54 X_02,01_06 + 266.14 X_02,01_07
      + 119.74 X_02,02_01 + 124.14 X_02,02_02 + 128.54 X_02,02_03
      + 132.94 X_02,02_04 + 137.34 X_02,02_05 + 141.74 X_02,02_06
      + 115.34 X_02,02_07 + 398.07 X_03,01_01 + 408.67 X_03,01_02
      + 419.27 X_03,01_03 + 429.87 X_03,01_04 + 440.47 X_03,01_05
      + 451.07 X_03,01_06 + 387.47 X_03,01_07 + 573.5 X_03,02_01
      + 584.1 X_03,02_02 + 594.7 X_03,02_03 + 605.3 X_03,02_04
      + 615.9 X_03,02_05 + 626.5 X_03,02_06 + 562.9 X_03,02_07
      + 270.54 X_04,01_01 + 274.94 X_04,01_02 + 279.34 X_04,01_03
      + 283.74 X_04,01_04 + 288.14 X_04,01_05 + 292.54 X_04,01_06
      + 266.14 X_04,01_07 + 119.74 X_04,02_01 + 124.14 X_04,02_02
      + 128.54 X_04,02_03 + 132.94 X_04,02_04 + 137.34 X_04,02_05
      + 141.74 X_04,02_06 + 115.34 X_04,02_07 + 398.07 X_05,01_01
      + 408.67 X_05,01_02 + 419.27 X_05,01_03 + 429.87 X_05,01_04
      + 440.47 X_05,01_05 + 451.07 X_05,01_06 + 387.47 X_05,01_07
      + 573.5 X_05,02_01 + 584.1 X_05,02_02 + 594.7 X_05,02_03
      + 605.3 X_05,02_04 + 615.9 X_05,02_05 + 626.5 X_05,02_06
      + 562.9 X_05,02_07 + 151.52 X_06,01_01 + 155.92 X_06,01_02
      + 160.32 X_06,01_03 + 164.72 X_06,01_04 + 169.12 X_06,01_05
      + 173.52 X_06,01_06 + 147.12 X_06,01_07 + 268.02 X_06,02_01
      + 272.42 X_06,02_02 + 276.82 X_06,02_03 + 281.22 X_06,02_04
      + 285.62 X_06,02_05 + 290.02 X_06,02_06 + 263.62 X_06,02_07
      + 652.41 X_07,01_01 + 663.01 X_07,01_02 + 673.61 X_07,01_03
      + 684.21 X_07,01_04 + 694.81 X_07,01_05 + 705.41 X_07,01_06
      + 641.81 X_07,01_07 + 288.89 X_07,02_01 + 299.49 X_07,02_02
      + 310.09 X_07,02_03 + 320.69 X_07,02_04 + 331.29 X_07,02_05
      + 341.89 X_07,02_06 + 278.29 X_07,02_07 + 365.68 X_08,01_01
      + 376.28 X_08,01_02 + 386.88 X_08,01_03 + 397.48 X_08,01_04
      + 408.08 X_08,01_05 + 418.68 X_08,01_06 + 355.08 X_08,01_07
      + 646.11 X_08,02_01 + 656.71 X_08,02_02 + 667.31 X_08,02_03
      + 677.91 X_08,02_04 + 688.51 X_08,02_05 + 699.11 X_08,02_06
      + 635.51 X_08,02_07 + 167.58 X_09,01_01 + 171.98 X_09,01_02
      + 176.38 X_09,01_03 + 180.78 X_09,01_04 + 185.18 X_09,01_05
      + 189.58 X_09,01_06 + 163.18 X_09,01_07 + 237.88 X_09,02_01
      + 242.28 X_09,02_02 + 246.68 X_09,02_03 + 251.08 X_09,02_04
      + 255.48 X_09,02_05 + 259.88 X_09,02_06 + 233.48 X_09,02_07
      + 270.54 X_10,01_01 + 274.94 X_10,01_02 + 279.34 X_10,01_03
      + 283.74 X_10,01_04 + 288.14 X_10,01_05 + 292.54 X_10,01_06
      + 266.14 X_10,01_07 + 119.74 X_10,02_01 + 124.14 X_10,02_02
      + 128.54 X_10,02_03 + 132.94 X_10,02_04 + 137.34 X_10,02_05
      + 141.74 X_10,02_06 + 115.34 X_10,02_07
Subject To
 Always_Assign_FLight_2_7: X_01,01_01 + X_01,01_02 + X_01,01_03 + X_01,01_04
                           + X_01,01_05 + X_01,01_06 + X_01,01_07 + X_01,02_01
                           + X_01,02_02 + X_01,02_03 + X_01,02_04 + X_01,02_05
                           + X_01,02_06 + X_01,02_07  = 1
 Always_Assign_FLight_2_7: X_02,01_01 + X_02,01_02 + X_02,01_03 + X_02,01_04
                           + X_02,01_05 + X_02,01_06 + X_02,01_07 + X_02,02_01
                           + X_02,02_02 + X_02,02_03 + X_02,02_04 + X_02,02_05
                           + X_02,02_06 + X_02,02_07  = 1
 Always_Assign_FLight_2_7: X_03,01_01 + X_03,01_02 + X_03,01_03 + X_03,01_04
                           + X_03,01_05 + X_03,01_06 + X_03,01_07 + X_03,02_01
                           + X_03,02_02 + X_03,02_03 + X_03,02_04 + X_03,02_05
                           + X_03,02_06 + X_03,02_07  = 1
 Always_Assign_FLight_2_7: X_04,01_01 + X_04,01_02 + X_04,01_03 + X_04,01_04
                           + X_04,01_05 + X_04,01_06 + X_04,01_07 + X_04,02_01
                           + X_04,02_02 + X_04,02_03 + X_04,02_04 + X_04,02_05
                           + X_04,02_06 + X_04,02_07  = 1
 Always_Assign_FLight_2_7: X_05,01_01 + X_05,01_02 + X_05,01_03 + X_05,01_04
                           + X_05,01_05 + X_05,01_06 + X_05,01_07 + X_05,02_01
                           + X_05,02_02 + X_05,02_03 + X_05,02_04 + X_05,02_05
                           + X_05,02_06 + X_05,02_07  = 1
 Always_Assign_FLight_2_7: X_06,01_01 + X_06,01_02 + X_06,01_03 + X_06,01_04
                           + X_06,01_05 + X_06,01_06 + X_06,01_07 + X_06,02_01
                           + X_06,02_02 + X_06,02_03 + X_06,02_04 + X_06,02_05
                           + X_06,02_06 + X_06,02_07  = 1
 Always_Assign_FLight_2_7: X_07,01_01 + X_07,01_02 + X_07,01_03 + X_07,01_04
                           + X_07,01_05 + X_07,01_06 + X_07,01_07 + X_07,02_01
                           + X_07,02_02 + X_07,02_03 + X_07,02_04 + X_07,02_05
                           + X_07,02_06 + X_07,02_07  = 1
 Always_Assign_FLight_2_7: X_08,01_01 + X_08,01_02 + X_08,01_03 + X_08,01_04
                           + X_08,01_05 + X_08,01_06 + X_08,01_07 + X_08,02_01
                           + X_08,02_02 + X_08,02_03 + X_08,02_04 + X_08,02_05
                           + X_08,02_06 + X_08,02_07  = 1
 Always_Assign_FLight_2_7: X_09,01_01 + X_09,01_02 + X_09,01_03 + X_09,01_04
                           + X_09,01_05 + X_09,01_06 + X_09,01_07 + X_09,02_01
                           + X_09,02_02 + X_09,02_03 + X_09,02_04 + X_09,02_05
                           + X_09,02_06 + X_09,02_07  = 1
 Always_Assign_FLight_2_7: X_10,01_01 + X_10,01_02 + X_10,01_03 + X_10,01_04
                           + X_10,01_05 + X_10,01_06 + X_10,01_07 + X_10,02_01
                           + X_10,02_02 + X_10,02_03 + X_10,02_04 + X_10,02_05
                           + X_10,02_06 + X_10,02_07  = 1
Bounds
      X_01,01_01 >= 0
      X_01,01_02 >= 0
      X_01,01_03 >= 0
      X_01,01_04 >= 0
      X_01,01_05 >= 0
      X_01,01_06 >= 0
      X_01,01_07 >= 0
      X_01,02_01 >= 0
      X_01,02_02 >= 0
      X_01,02_03 >= 0
      X_01,02_04 >= 0
      X_01,02_05 >= 0
      X_01,02_06 >= 0
      X_01,02_07 >= 0
      X_02,01_01 >= 0
      X_02,01_02 >= 0
      X_02,01_03 >= 0
      X_02,01_04 >= 0
      X_02,01_05 >= 0
      X_02,01_06 >= 0
      X_02,01_07 >= 0
      X_02,02_01 >= 0
      X_02,02_02 >= 0
      X_02,02_03 >= 0
      X_02,02_04 >= 0
      X_02,02_05 >= 0
      X_02,02_06 >= 0
      X_02,02_07 >= 0
      X_03,01_01 >= 0
      X_03,01_02 >= 0
      X_03,01_03 >= 0
      X_03,01_04 >= 0
      X_03,01_05 >= 0
      X_03,01_06 >= 0
      X_03,01_07 >= 0
      X_03,02_01 >= 0
      X_03,02_02 >= 0
      X_03,02_03 >= 0
      X_03,02_04 >= 0
      X_03,02_05 >= 0
      X_03,02_06 >= 0
      X_03,02_07 >= 0
      X_04,01_01 >= 0
      X_04,01_02 >= 0
      X_04,01_03 >= 0
      X_04,01_04 >= 0
      X_04,01_05 >= 0
      X_04,01_06 >= 0
      X_04,01_07 >= 0
      X_04,02_01 >= 0
      X_04,02_02 >= 0
      X_04,02_03 >= 0
      X_04,02_04 >= 0
      X_04,02_05 >= 0
      X_04,02_06 >= 0
      X_04,02_07 >= 0
      X_05,01_01 >= 0
      X_05,01_02 >= 0
      X_05,01_03 >= 0
      X_05,01_04 >= 0
      X_05,01_05 >= 0
      X_05,01_06 >= 0
      X_05,01_07 >= 0
      X_05,02_01 >= 0
      X_05,02_02 >= 0
      X_05,02_03 >= 0
      X_05,02_04 >= 0
      X_05,02_05 >= 0
      X_05,02_06 >= 0
      X_05,02_07 >= 0
      X_06,01_01 >= 0
      X_06,01_02 >= 0
      X_06,01_03 >= 0
      X_06,01_04 >= 0
      X_06,01_05 >= 0
      X_06,01_06 >= 0
      X_06,01_07 >= 0
      X_06,02_01 >= 0
      X_06,02_02 >= 0
      X_06,02_03 >= 0
      X_06,02_04 >= 0
      X_06,02_05 >= 0
      X_06,02_06 >= 0
      X_06,02_07 >= 0
      X_07,01_01 >= 0
      X_07,01_02 >= 0
      X_07,01_03 >= 0
      X_07,01_04 >= 0
      X_07,01_05 >= 0
      X_07,01_06 >= 0
      X_07,01_07 >= 0
      X_07,02_01 >= 0
      X_07,02_02 >= 0
      X_07,02_03 >= 0
      X_07,02_04 >= 0
      X_07,02_05 >= 0
      X_07,02_06 >= 0
      X_07,02_07 >= 0
      X_08,01_01 >= 0
      X_08,01_02 >= 0
      X_08,01_03 >= 0
      X_08,01_04 >= 0
      X_08,01_05 >= 0
      X_08,01_06 >= 0
      X_08,01_07 >= 0
      X_08,02_01 >= 0
      X_08,02_02 >= 0
      X_08,02_03 >= 0
      X_08,02_04 >= 0
      X_08,02_05 >= 0
      X_08,02_06 >= 0
      X_08,02_07 >= 0
      X_09,01_01 >= 0
      X_09,01_02 >= 0
      X_09,01_03 >= 0
      X_09,01_04 >= 0
      X_09,01_05 >= 0
      X_09,01_06 >= 0
      X_09,01_07 >= 0
      X_09,02_01 >= 0
      X_09,02_02 >= 0
      X_09,02_03 >= 0
      X_09,02_04 >= 0
      X_09,02_05 >= 0
      X_09,02_06 >= 0
      X_09,02_07 >= 0
      X_10,01_01 >= 0
      X_10,01_02 >= 0
      X_10,01_03 >= 0
      X_10,01_04 >= 0
      X_10,01_05 >= 0
      X_10,01_06 >= 0
      X_10,01_07 >= 0
      X_10,02_01 >= 0
      X_10,02_02 >= 0
      X_10,02_03 >= 0
      X_10,02_04 >= 0
      X_10,02_05 >= 0
      X_10,02_06 >= 0
      X_10,02_07 >= 0
Generals
 X_01,01_01  X_01,01_02  X_01,01_03  X_01,01_04  X_01,01_05  X_01,01_06 
 X_01,01_07  X_01,02_01  X_01,02_02  X_01,02_03  X_01,02_04  X_01,02_05 
 X_01,02_06  X_01,02_07  X_02,01_01  X_02,01_02  X_02,01_03  X_02,01_04 
 X_02,01_05  X_02,01_06  X_02,01_07  X_02,02_01  X_02,02_02  X_02,02_03 
 X_02,02_04  X_02,02_05  X_02,02_06  X_02,02_07  X_03,01_01  X_03,01_02 
 X_03,01_03  X_03,01_04  X_03,01_05  X_03,01_06  X_03,01_07  X_03,02_01 
 X_03,02_02  X_03,02_03  X_03,02_04  X_03,02_05  X_03,02_06  X_03,02_07 
 X_04,01_01  X_04,01_02  X_04,01_03  X_04,01_04  X_04,01_05  X_04,01_06 
 X_04,01_07  X_04,02_01  X_04,02_02  X_04,02_03  X_04,02_04  X_04,02_05 
 X_04,02_06  X_04,02_07  X_05,01_01  X_05,01_02  X_05,01_03  X_05,01_04 
 X_05,01_05  X_05,01_06  X_05,01_07  X_05,02_01  X_05,02_02  X_05,02_03 
 X_05,02_04  X_05,02_05  X_05,02_06  X_05,02_07  X_06,01_01  X_06,01_02 
 X_06,01_03  X_06,01_04  X_06,01_05  X_06,01_06  X_06,01_07  X_06,02_01 
 X_06,02_02  X_06,02_03  X_06,02_04  X_06,02_05  X_06,02_06  X_06,02_07 
 X_07,01_01  X_07,01_02  X_07,01_03  X_07,01_04  X_07,01_05  X_07,01_06 
 X_07,01_07  X_07,02_01  X_07,02_02  X_07,02_03  X_07,02_04  X_07,02_05 
 X_07,02_06  X_07,02_07  X_08,01_01  X_08,01_02  X_08,01_03  X_08,01_04 
 X_08,01_05  X_08,01_06  X_08,01_07  X_08,02_01  X_08,02_02  X_08,02_03 
 X_08,02_04  X_08,02_05  X_08,02_06  X_08,02_07  X_09,01_01  X_09,01_02 
 X_09,01_03  X_09,01_04  X_09,01_05  X_09,01_06  X_09,01_07  X_09,02_01 
 X_09,02_02  X_09,02_03  X_09,02_04  X_09,02_05  X_09,02_06  X_09,02_07 
 X_10,01_01  X_10,01_02  X_10,01_03  X_10,01_04  X_10,01_05  X_10,01_06 
 X_10,01_07  X_10,02_01  X_10,02_02  X_10,02_03  X_10,02_04  X_10,02_05 
 X_10,02_06  X_10,02_07 
End
